c1_10_6

VEHICLE
NUMBER   CAPACITY
250     200

CUSTOMER
CUST NO. XCOORD.  YCOORD.  DEMAND  READY TIME DUE DATE  SERVICE TIME

0   250    250     0     0    1824     0
339 394 333 20 448 610 90
960 455 365 20 235 369 90
735 388 325 10 973 1024 90
673 390 325 30 818 995 90
684 457 374 10 965 984 90
457 395 332 10 574 667 90
534 446 319 30 334 447 90
810 459 368 10 240 446 90
959 462 367 20 425 602 90
480 459 374 20 813 952 90
640 389 334 20 254 435 90
854 388 331 20 160 314 90
748 395 331 20 641 783 90
325 398 325 30 706 910 90
304 460 374 20 692 891 90
783 388 334 20 161 378 90
580 459 372 20 607 792 90
841 461 369 10 521 691 90
861 391 334 20 412 461 90
833 453 367 20 1045 1101 90
620 460 367 20 322 520 90
56 451 367 20 1115 1214 90
